147
0 113 108 22 46 81 74 102 40 85 
136 68 103 55 99 144 6 27 117 90 
58 8 143 115 33 49 92 1 34 7 
97 30 23 19 47 16 26 95 123 78 
11 71 44 39 140 133 72 80 9 139 
83 126 98 82 101 15 45 14 137 38 
10 18 75 100 3 119 35 127 88 91 
132 131 50 20 125 124 53 135 128 61 
87 54 37 43 69 51 110 63 106 13 
73 130 112 62 24 84 129 52 65 41 
93 17 120 111 77 42 29 79 104 76 
56 32 141 142 145 116 4 57 36 5 
25 66 109 48 122 114 134 146 94 89 
59 64 118 107 2 138 86 60 31 96 
12 70 21 28 121 67 105 
